TCS_Benchmarks/redos_fix/regexlib1_output_distinct_4387_4386_0_0.txt
([\\@A-Za-z\/\\-\\0-9^\{#$%()*+,.s:;|}=?]*[&-'\\!-"<>]+(((\\s)?)CDATA((\\s)?))*[!-,\\a-}.-Z^]*)+
[&-'\\!-"<>]+